128
1000
103
7
127
86
142
22
210
35
180
28
250
136
215
107
141
196
127
145
65
78
27
27
242
83
239
77
80
190
21
186
87
116
116
134
97
114
240
232
79
152
159
226
232
80
17
44
135
72
89
103
185
37
40
96
205
138
163
162
1
59
95
240
67
118
195
155
107
163
111
155
134
69
11
181
115
139
37
88
112
154
50
112
107
184
113
48
174
151
50
155
167
6
18
200
48
197
3
208
212
11
75
87
64
215
113
137
19
141
137
114
119
146
82
116
183
141
19
91
90
76
37
3
38
238
114
242
206
115
